experiments/sat_smt/run/sat-r+/results/sally.res
solved=true
solvingTime=48.3409881591796875
nActions=13