experiments/sat_smt/run/sat-r+/results/sally.out
Timesteps: 1
s UNSATISFIABLE
real 0.15
user 0.02
sys 0.00
Timesteps: 2
s UNSATISFIABLE
real 0.20
user 0.04
sys 0.00
Timesteps: 3
s UNSATISFIABLE
real 0.25
user 0.07
sys 0.00
Timesteps: 4
s UNSATISFIABLE
real 0.26
user 0.15
sys 0.00
Timesteps: 5
s UNSATISFIABLE
real 0.61
user 0.33
sys 0.01
Timesteps: 6
s UNSATISFIABLE
real 0.54
user 0.40
sys 0.01
Timesteps: 7
s UNSATISFIABLE
real 0.88
user 0.70
sys 0.01
Timesteps: 8
s UNSATISFIABLE
real 1.85
user 1.62
sys 0.02
Timesteps: 9
s UNSATISFIABLE
real 1.90
user 1.68
sys 0.02
Timesteps: 10
s UNSATISFIABLE
real 2.87
user 2.39
sys 0.03
Timesteps: 11
s UNSATISFIABLE
real 9.41
user 8.70
sys 0.03
Timesteps: 12
s UNSATISFIABLE
real 13.17
user 12.38
sys 0.03
Timesteps: 13
s SATISFIABLE
real 17.50
user 16.62
sys 0.05
